c --- [ banner ] -------------------------------------------------------------
c 
c CaDiCaL SAT Solver
c Copyright (c) 2016-2023 A. Biere, M. Fleury, N. Froleyks, K. Fazekas, F. Pollitt
c 
c Version 1.9.5
c g++ (Ubuntu 11.4.0-1ubuntu1~22.04) 11.4.0 -Wall -Wextra -O3 -DNDEBUG -static
c Thu Mar 7 06:16:21 CET 2024 Linux pc101447 6.5.0-17-generic x86_64
c 
c --- [ limit ] --------------------------------------------------------------
c 
c setting time limit to 3600 seconds real time (due to '-t 3600')
c 
c --- [ parsing input ] ------------------------------------------------------
c 
c reading DIMACS file from '/home/oliveras/SAT-comp-2023//6e31e88a5dadaa3876eb5ff4293134c2-hash_table_find_safety_size_21.cnf'
c opening file to read '/home/oliveras/SAT-comp-2023//6e31e88a5dadaa3876eb5ff4293134c2-hash_table_find_safety_size_21.cnf'
c found 'p cnf 12381374 56719873' header
c parsed 56719873 clauses in 24.03 seconds process time
c 
c --- [ options ] ------------------------------------------------------------
c 
c   --seed=1                       (different from default '0')
c 
c --- [ solving ] ------------------------------------------------------------
c 
c time measured in process time since initialization
c 
c  seconds    reductions  redundant   irredundant
c          MB     restarts       trail          variables
c            level   conflicts       glue              remaining
c 
c * 24.03 6985  0 0   0    0    0  0% 0 49718653 11219792 91%
c { 24.44 7022  0 0   0    0    0  0% 0 49718653 11219792 91%
c } 24.66 7030 633 0   0 1706    5 10% 214 49718653 11219792 91%
c [ 24.66 7030  0 0   0 1706    5  0% 0 49718653 11219792 91%
c - 29.35 7080  0 1   0 1706    5  0% 0 49195571 11219792 91%
c O 29.40 7080  0 1   0 1707    5  9% 0 49195571 11219792 91%
c i 29.40 7080  0 1   0 1707    5  9% 0 49195571 11219774 91%
c i 29.41 7080  0 1   0 1708    5  9% 0 49195571 11219709 91%
c i 29.43 7080  0 1   0 1709    5  9% 0 49195571 11219708 91%
c i 29.45 7080  0 1   0 1710    5  9% 0 49195571 11170286 90%
c i 29.50 7080  0 1   0 1711    5 10% 0 49195571 11170282 90%
c i 29.53 7080  0 1   0 1712    5 10% 0 49195571 11170174 90%
c i 32.80 7161 65 1   0 1720   10 33% 5 49195571 11170155 90%
c i 32.86 7161 53 1   0 1723   12 29% 4 49195571 11117430 90%
c i 32.86 7161 44 1   0 1727   15 25% 4 49195571 11117368 90%
c i 32.87 7161 38 1   0 1731   18 23% 4 49195571 11116722 90%
c i 32.88 7161 35 1   0 1733   19 22% 4 49195571 11116659 90%
c i 33.15 7162 23 1   0 1750   23 18% 3 49195571 11114302 90%
c i 78.33 8840 556 1   1 3287  955 58% 34 46638827 11114233 90%
c i 78.46 8840 565 1   1 3405 1053 18% 31 46638827 11114227 90%
c 
c  seconds     reductions  redundant    irredundant
c          MB      restarts       trail           variables
c             level   conflicts       glue               remaining
c 
c i 78.47 8840 565 1   1 3410 1057 17% 31 46638827 11114224 90%
c i 78.48 8840 566 1   1 3434 1072 15% 31 46638827 11113925 90%
c i 78.50 8840 567 1   1 3443 1075 15% 31 46638827 11113679 90%
c i 98.41 8840 569 1   1 3525 1125 19% 32 46638827 11113675 90%
c i 104.88 8840 569 1   1 3551 1137 21% 33 46638827 11113672 90%
c i 120.11 8840 568 1   1 3612 1162 24% 34 46638827 11113667 90%
c i 135.43 8840 566 1   1 3673 1187 27% 36 46638827 11113662 90%
c ] 143.74 8840 565 1   1 3707 1200 28% 36 46638827 11113662 90%
c { 143.74 8840 633 1   1 3707 1200 11% 214 46638827 11113662 90%
c F 143.90 8840 570 1   1 3708 1201 11% 192 46638827 11113658 90%
c i 143.92 8840 439 1   1 3711 1202 11% 160 46638827 11113009 90%
c i 143.92 8840 407 1   1 3712 1202 11% 148 46638827 11113006 90%
c i 144.68 8840 380 1   1 3713 1202 11% 138 46638827 11113003 90%
c i 144.81 8840 323 1   1 3716 1204 11% 113 46638827 11113001 90%
c i 144.85 8840 309 1   1 3717 1204 11% 107 46638827 11112999 90%
c i 144.90 8840 297 1   1 3718 1204 11% 101 46638827 11112997 90%
c i 144.93 8840 285 1   1 3719 1204 11% 96 46638827 11112995 90%
c i 144.98 8840 275 1   1 3720 1204 11% 92 46638827 11112993 90%
c i 145.01 8840 265 1   1 3721 1204 12% 88 46638827 11112991 90%
c - 158.51 8838 516 2   1 3922 1282 15% 18 46633171 11112991 90%
c 
c  seconds      reductions  redundant    irredundant
c           MB      restarts       trail           variables
c              level   conflicts       glue               remaining
c 
c s 174.77 8218 487 2   1 4296 1439 20% 10 46631576 11112991 90%
c v 231.75 8726 487 2   1 4296 1439 20% 10 46631162 11112991 90%
c w 243.39 8726 487 2   1 4296 1438 20% 10 46631162 11112990 90%
c t 246.82 8726 487 2   1 4296 1437 20% 10 46631148 11112989 90%
c e 360.01 8090 487 2   1 4296   75 20% 10 6648630 757092  6%
c s 363.84 8090 487 2   1 4296   74 20% 10 6648621 757092  6%
c e 366.66 8090 487 2   1 4296   74 20% 10 6648615 757091  6%
c i 369.10 8599 477 2   1 4321   91 20% 10 6648615 757084  6%
c i 369.15 8599 487 2   1 4327   94 20% 10 6648615 757083  6%
c i 370.90 8761 277792 2   1 4375  126 20% 12 6648615 757076  6%
c i 370.95 8761 190726 2   2 4576  322 19% 10 6648615 757028  6%
c i 370.95 8761 189249 2   2 4581  324 18% 9 6648615 757026  6%
c i 371.09 8761 187219 2   2 4588  330 18% 9 6648615 757025  6%
c i 371.09 8761 186933 2   2 4589  330 18% 9 6648615 757024  6%
c i 371.09 8761 186647 2   2 4590  330 18% 9 6648615 757023  6%
c i 371.09 8761 186363 2   2 4591  330 18% 9 6648615 757022  6%
c i 371.09 8761 186079 2   2 4592  330 18% 9 6648615 757021  6%
c i 371.12 8761 176918 2   4 4626  340 18% 11 6648615 756994  6%
c i 371.26 8761 175898 2   6 4630  343 18% 11 6648615 756986  6%
c i 371.26 8761 175645 2   6 4631  343 18% 11 6648615 756985  6%
c 
c  seconds         reductions  redundant    irredundant
c           MB         restarts       trail         variables
c               level     conflicts       glue            remaining
c 
c i 371.26 8761 175393 2   6 4632  343 18% 11 6648615 756984  6%
c i 371.26 8761 175141 2   7 4633  343 18% 11 6648615 756983  6%
c i 371.26 8761 174890 2   7 4634  343 18% 11 6648615 756982  6%
c i 371.26 8761 174639 2   7 4635  343 18% 11 6648615 756981  6%
c i 371.26 8761 174390 2   8 4636  343 18% 11 6648615 756980  6%
c i 371.26 8761 174141 2   8 4637  343 18% 11 6648615 756979  6%
c i 371.26 8761 173893 2   8 4638  343 18% 10 6648615 756978  6%
c i 371.26 8761 173645 2   9 4639  343 18% 10 6648615 756977  6%
c i 371.26 8761 173398 2   9 4640  343 18% 10 6648615 756976  6%
c i 371.26 8761 173152 2   9 4641  343 18% 10 6648615 756975  6%
c i 371.26 8761 172907 2   9 4642  343 18% 10 6648615 756974  6%
c i 371.27 8761 172662 2   9 4643  343 18% 10 6648615 756973  6%
c i 371.27 8761 172418 2   9 4644  343 18% 10 6648615 756972  6%
c i 371.27 8761 172175 2   9 4645  343 18% 10 6648615 756971  6%
c i 371.27 8761 171932 2   9 4646  343 18% 10 6648615 756970  6%
c i 371.27 8761 171449 2   9 4648  343 18% 10 6648615 756967  6%
c i 371.55 8761 166081 2  13 4672  359 18% 11 6648615 756959  6%
c i 371.55 8761 164070 2  13 4681  364 18% 11 6648615 756956  6%
c i 371.69 8761 154146 2  14 4729  411 18% 10 6648615 756955  6%
c i 371.69 8761 153952 2  14 4730  411 18% 10 6648615 756954  6%
c 
c  seconds         reductions  redundant    irredundant
c           MB         restarts       trail         variables
c               level     conflicts       glue            remaining
c 
c i 371.69 8761 153759 2  14 4731  411 18% 10 6648615 756953  6%
c i 371.69 8761 153566 2  14 4732  411 18% 10 6648615 756952  6%
c i 371.69 8761 153373 2  14 4733  411 18% 10 6648615 756951  6%
c i 371.69 8761 153181 2  14 4734  411 18% 10 6648615 756950  6%
c i 371.69 8761 152990 2  14 4735  411 17% 10 6648615 756949  6%
c i 371.69 8761 152798 2  14 4736  411 17% 10 6648615 756948  6%
c i 371.69 8761 152608 2  14 4737  411 17% 10 6648615 756947  6%
c i 371.69 8761 152418 2  14 4738  411 17% 10 6648615 756946  6%
c i 371.69 8761 152228 2  14 4739  411 17% 10 6648615 756945  6%
c i 371.69 8761 152039 2  14 4740  411 17% 10 6648615 756944  6%
c i 371.69 8761 151850 2  14 4741  411 17% 10 6648615 756943  6%
c i 371.69 8761 151662 2  14 4742  411 17% 10 6648615 756942  6%
c i 371.69 8761 151474 2  14 4743  411 17% 10 6648615 756941  6%
c i 371.69 8761 151286 2  14 4744  411 17% 10 6648615 756940  6%
c i 371.69 8761 151099 2  14 4745  411 17% 10 6648615 756939  6%
c i 371.69 8761 150913 2  14 4746  411 17% 10 6648615 756938  6%
c i 371.69 8761 150727 2  14 4747  411 17% 10 6648615 756937  6%
c i 371.69 8761 150542 2  14 4748  411 17% 10 6648615 756936  6%
c i 371.69 8761 150356 2  14 4749  411 17% 10 6648615 756935  6%
c i 371.69 8761 150172 2  14 4750  411 17% 10 6648615 756934  6%
c 
c  seconds         reductions  redundant    irredundant
c           MB         restarts       trail         variables
c               level     conflicts       glue            remaining
c 
c i 371.69 8761 149988 2  14 4751  411 17% 10 6648615 756933  6%
c i 371.69 8761 149804 2  14 4752  411 17% 10 6648615 756932  6%
c i 371.69 8761 149621 2  14 4753  411 17% 10 6648615 756931  6%
c i 371.69 8761 149438 2  14 4754  411 17% 10 6648615 756930  6%
c i 371.69 8761 149256 2  14 4755  411 17% 10 6648615 756929  6%
c i 371.69 8761 149074 2  14 4756  411 17% 10 6648615 756928  6%
c i 371.69 8761 148892 2  14 4757  411 17% 10 6648615 756927  6%
c i 371.69 8761 148711 2  14 4758  411 17% 10 6648615 756926  6%
c i 371.69 8761 148531 2  14 4759  411 17% 9 6648615 756925  6%
c i 371.69 8761 148350 2  14 4760  411 17% 9 6648615 756924  6%
c i 371.69 8761 148171 2  14 4761  411 17% 9 6648615 756923  6%
c i 371.69 8761 147991 2  14 4762  411 17% 9 6648615 756922  6%
c i 371.69 8761 147813 2  14 4763  411 17% 9 6648615 756921  6%
c d 376.02 8779 139871 2  15 5005  496 16% 9 6606659 740420  6%
c 3 380.26 8271 139871 2  15 5005 174420 16% 9 6606655 740418  6%
c 2 385.00 8780 139871 2  15 5005 174420 16% 9 6470099 740206  6%
c p 391.74 8790 139871 2  15 5005 1526484 16% 9 6470099 279916  2%
c d 394.43 8791 139871 2  15 5005 236932 16% 9 3185470 279823  2%
c d 396.20 8803 139871 2  15 5005 236932 16% 9 2992600 191988  2%
c i 396.73 8803 131311 2  17 5067 236986 16% 10 2992600 191977  2%
c 
c  seconds         reductions   redundant     irredundant
c           MB         restarts         trail         variables
c               level     conflicts         glue            remaining
c 
c i 397.16 8803 119819 2  42 5171 237065 16% 11 2992599 191975  2%
c i 397.17 8803 117895 2  43 5189 237072 16% 11 2992599 191964  2%
c i 397.17 8803 117267 2  43 5195 237075 16% 11 2992599 191961  2%
c i 397.17 8803 116646 2  43 5201 237078 16% 11 2992599 191958  2%
c i 397.17 8803 115121 2  43 5216 237083 16% 11 2992599 191948  2%
c i 397.17 8803 115021 2  43 5217 237083 16% 11 2992599 191947  2%
c i 397.17 8803 114921 2  43 5218 237083 16% 11 2992599 191946  2%
c i 397.17 8803 114821 2  43 5219 237083 16% 11 2992599 191945  2%
c i 397.17 8803 114621 2  43 5221 237084 16% 10 2992599 191944  2%
c i 397.17 8803 114522 2  43 5222 237084 16% 10 2992599 191943  2%
c i 397.17 8803 114323 2  43 5224 237085 16% 10 2992599 191942  2%
c i 397.17 8803 112281 2  43 5245 237103 16% 11 2992599 191941  2%
c i 397.17 8803 112186 2  43 5246 237103 16% 10 2992599 191940  2%
c i 397.17 8803 112090 2  43 5247 237103 16% 10 2992599 191939  2%
c i 397.17 8803 111995 2  43 5248 237103 16% 10 2992599 191938  2%
c i 397.17 8803 111805 2  43 5250 237104 16% 10 2992599 191937  2%
c i 397.17 8803 111711 2  43 5251 237104 16% 10 2992599 191936  2%
c i 397.18 8803 111616 2  43 5252 237104 16% 10 2992599 191935  2%
c i 397.18 8803 111522 2  43 5253 237104 16% 10 2992599 191934  2%
c i 397.18 8803 111428 2  43 5254 237104 16% 10 2992599 191931  2%
c 
c  seconds         reductions   redundant     irredundant
c           MB         restarts         trail         variables
c               level     conflicts         glue            remaining
c 
c i 397.18 8803 110959 2  43 5259 237105 16% 10 2992599 191930  2%
c i 397.18 8803 110680 2  43 5262 237107 16% 10 2992599 191929  2%
c i 397.22 8803 104460 2  46 5333 237166 15% 11 2992599 191927  2%
c i 397.23 8803 104048 2  46 5338 237170 15% 10 2992599 191925  2%
c i 398.15 8803 55250 2  49 6460 237796 13% 8 2992599 191884  2%
c i 398.63 8803 52043 2  57 6628 237908 12% 8 2992598 191857  2%
c i 398.68 8803 51775 2  61 6641 237920 12% 8 2992598 191855  2%
c i 398.69 8803 51755 2  61 6642 237920 12% 8 2992598 191854  2%
c i 398.70 8803 51734 2  62 6643 237920 12% 8 2992598 191853  2%
c i 398.71 8803 51714 2  62 6644 237920 12% 8 2992598 191852  2%
c i 398.71 8803 51693 2  62 6645 237920 12% 8 2992598 191851  2%
c i 398.74 8803 51469 2  62 6656 237926 12% 8 2992598 191849  2%
c # 398.86 8803 50400 2  62 6710 237953 12% 8 2992598 191849  2%
c i 398.96 8803 49581 2  66 6798 237985 12% 9 2992598 191848  2%
c i 399.14 8803 47976 2  87 6892 238059 12% 9 2992598 191847  2%
c - 402.96 8467 42628 3  91 7236 37023 11% 9 2988493 191847  2%
c i 408.55 6686 41685 3 103 7307 37080 12% 9 2988493 186239  2%
c } 409.12 6686 37035 3 130 7707 37297 20% 9 2988493 186239  2%
c [ 409.13 6686 565 3 130 7707 37297 1610% 36 2988493 186239  2%
c - 411.70 6686 431 4 131 10207 34029 300% 20 2937025 186239  2%
c 
c  seconds      reductions    redundant     irredundant
c           MB      restarts         trail          variables
c              level    conflicts         glue            remaining
c 
c I 412.12 6686 428 4 131 10711 34304 263% 19 2937025 186239  2%
c i 412.14 6686 421 4 131 10845 34372 254% 19 2937025 186238  2%
c i 415.22 6686 384 4 133 13303 35859 170% 17 2937025 185978  2%
c i 415.23 6686 383 4 133 13319 35870 169% 17 2937024 185702  1%
c - 415.99 6686 378 5 133 13909 35743 158% 16 2933088 185702  1%
c i 416.34 6686 374 5 133 13991 35791 156% 16 2933088 185410  1%
c i 416.35 6686 374 5 133 13998 35797 156% 16 2933088 185102  1%
c i 416.35 6686 374 5 133 14000 35797 156% 16 2933088 184778  1%
c i 416.35 6686 373 5 133 14003 35796 156% 16 2933088 184438  1%
c i 416.40 6686 372 5 133 14026 35807 155% 16 2933088 184082  1%
c i 416.67 6686 364 5 133 14574 36126 146% 16 2933088 183710  1%
c d 417.54 6686 348 5 134 15010 36278 139% 16 2908933 177516  1%
c d 417.77 6688 348 5 134 15010 36278 139% 16 2903749 174924  1%
c 3 418.18 6688 348 5 134 15010 39876 139% 16 2903749 174924  1%
c d 418.78 6688 348 5 134 15010 40161 139% 16 2903749 174923  1%
c 2 419.01 6688 348 5 134 15010 14669 139% 16 2864491 172497  1%
c p 419.28 6688 348 5 134 15010 48431 139% 16 2864491 167751  1%
c d 419.56 6688 348 5 134 15010 23761 139% 16 2228539 167749  1%
c d 419.87 6688 348 5 134 15010 23043 139% 16 2211389 159174  1%
c i 421.42 6688 337 5 134 15317 23173 19% 16 2211389 158276  1%
c 
c  seconds      reductions    redundant    irredundant
c           MB      restarts         trail         variables
c              level    conflicts        glue            remaining
c 
c i 421.67 6688 333 5 134 15426 23243 19% 16 2211389 158271  1%
c ] 422.01 6688 323 5 134 15709 23435 18% 15 2211385 158271  1%
c { 422.01 6688 37035 5 134 15709 23435 24% 9 2211385 158271  1%
c B 422.03 6688 37003 5 134 15712 23437 24% 9 2211385 158271  1%
c s 423.57 6688 30687 5 206 16836 23489 26% 10 1199988 158271  1%
c w 424.85 6688 30687 5 206 16836 23484 26% 10 1167588 158271  1%
c t 425.10 6688 30687 5 206 16836 23484 26% 10 1167584 158271  1%
c e 425.76 6692 30687 5 206 16836 19263 26% 10 992476 127752  1%
c s 426.24 6692 30687 5 206 16836 18858 26% 10 988899 127752  1%
c e 426.55 6692 30687 5 206 16836 18706 26% 10 982566 127039  1%
c i 427.44 6692 26501 5 239 17558 19111 26% 10 982566 125617  1%
c i 427.45 6692 26458 5 239 17566 19117 26% 10 982566 125272  1%
c i 427.46 6692 26447 5 239 17568 19118 26% 10 982566 121414  1%
c i 427.46 6692 26430 5 239 17571 19120 25% 10 982566 121402  1%
c i 427.46 6692 26354 5 239 17585 19129 25% 10 982566 121390  1%
c i 427.46 6692 26343 5 239 17587 19130 25% 10 982566 121378  1%
c i 427.46 6692 26332 5 239 17589 19131 25% 10 982566 121368  1%
c i 427.46 6692 26311 5 239 17593 19133 25% 10 982566 121356  1%
c } 427.47 6692 26300 5 239 17596 19134 25% 10 982566 106317  1%
c 0 427.47 6692 26300 5 239 17596 19134 25% 10 982566 106317  1%
c 
c --- [ result ] -------------------------------------------------------------
c 
s UNSATISFIABLE
c 
c --- [ run-time profiling ] -------------------------------------------------
c 
c process time taken by individual solving procedures
c (percentage relative to process time for solving)
c 
c       222.63   55.18% simplify
c       180.82   44.82% search
c       129.34   32.06% stable
c       114.19   28.30% elim
c        63.97   15.86% vivify
c        51.06   12.66% unstable
c        24.03    5.96% parse
c        15.00    3.72% subsume
c         7.02    1.74% probe
c         6.23    1.54% ternary
c         0.42    0.10% lucky
c   =================================
c       403.44   94.38% solve
c 
c last line shows process time for solving
c (percentage relative to total process time)
c 
c --- [ statistics ] ---------------------------------------------------------
c 
c chronological:             10124        57.54 %  of conflicts
c conflicts:                 17596        43.61    per second
c decisions:              26488399     65656.28    per second
c eliminated:             10386287        83.89 %  of all variables
c fixed:                   1752632        14.16 %  of all variables
c learned:                   11090        63.03 %  per conflict
c learned_lits:            1325051       100.00 %  learned literals
c minimized:                     0         0.00 %  learned literals
c shrunken:                 347192        26.20 %  learned literals
c minishrunken:             106190         8.01 %  learned literals
c otfs:                       3420        19.44 %  of conflict
c propagations:         1202562221         2.98 M  per second
c reduced:                     951         5.40 %  per conflict
c rephased:                      5      3519.20    interval
c restarts:                    239        73.62    interval
c stabilizing:                   2        56.80 %  of conflicts
c substituted:              121760         0.98 %  of all variables
c subsumed:                1247794         1.78 %  of all clauses
c strengthened:              91051         0.13 %  of all clauses
c ternary:                  177851         1.16 %  of resolved
c trail reuses:                  0         0.00 %  of incremental calls
c vivified:                  33116         0.05 %  of all clauses
c weakened:               46004563         3.26    average size
c 
c seconds are measured in process time for solving
c 
c --- [ resources ] ----------------------------------------------------------
c 
c total process time since initialization:       427.47    seconds
c total real time since initialization:          427.55    seconds
c maximum resident set size of process:        10926.04    MB
c 
c --- [ shutting down ] ------------------------------------------------------
c 
c exit 20
